p cnf 45 71
-14 6 13 15 16 18 19 20 21 22 23 27 30 33 34 38 40 0 
-15 6 13 14 16 18 19 20 21 22 23 27 30 33 34 38 40 0 
-16 6 13 14 15 18 19 20 21 22 23 27 30 33 34 38 40 0 
-17 24 25 26 28 31 32 35 36 37 39 40 0 
-18 6 13 14 15 16 19 20 21 22 23 27 30 33 34 38 40 0 
-19 6 13 14 15 16 18 20 21 22 23 27 30 33 34 38 40 0 
-20 6 13 14 15 16 18 19 21 22 23 27 30 33 34 38 40 0 
-1 40 0 
-21 6 13 14 15 16 18 19 20 22 23 27 30 33 34 38 40 0 
-22 6 13 14 15 16 18 19 20 21 23 27 30 33 34 38 40 0 
-23 6 13 14 15 16 18 19 20 21 22 27 30 33 34 38 40 0 
-24 17 25 26 28 31 32 35 36 37 39 40 0 
-16 6 13 14 15 18 19 20 21 22 23 27 30 33 34 38 41 0 
-25 17 24 26 28 31 32 35 36 37 39 40 0 
-17 24 25 26 28 31 32 35 36 37 39 41 0 
-14 6 13 15 16 18 19 20 21 22 23 27 30 33 34 38 41 0 
-22 6 13 14 15 16 18 19 20 21 23 27 30 33 34 38 41 0 
-26 17 24 25 28 31 32 35 36 37 39 41 0 
-25 17 24 26 28 31 32 35 36 37 39 41 0 
-27 6 13 14 15 16 18 19 20 21 22 23 30 33 34 38 41 0 
-28 17 24 25 26 31 32 35 36 37 39 -29 41 0 
-18 6 13 14 15 16 19 20 21 22 23 27 30 33 34 38 41 0 
-21 6 13 14 15 16 18 19 20 22 23 27 30 33 34 38 41 0 
-30 6 13 14 15 16 18 19 20 21 22 23 27 33 34 38 41 0 
-17 24 25 26 28 31 32 35 36 37 39 42 0 
-31 17 24 25 26 28 32 35 36 37 39 42 0 
-22 6 13 14 15 16 18 19 20 21 23 27 30 33 34 38 42 0 
-16 6 13 14 15 18 19 20 21 22 23 27 30 33 34 38 42 0 
-28 17 24 25 26 31 32 35 36 37 39 -29 42 0 
-32 17 24 25 26 28 31 35 36 37 39 42 0 
-33 6 13 14 15 16 18 19 20 21 22 23 27 30 34 38 42 0 
-34 6 13 14 15 16 18 19 20 21 22 23 27 30 33 38 42 0 
-1 42 0 
-18 6 13 14 15 16 19 20 21 22 23 27 30 33 34 38 42 0 
-20 6 13 14 15 16 18 19 21 22 23 27 30 33 34 38 42 0 
-21 6 13 14 15 16 18 19 20 22 23 27 30 33 34 38 42 0 
-16 6 13 14 15 18 19 20 21 22 23 27 30 33 34 38 43 0 
-17 24 25 26 28 31 32 35 36 37 39 43 0 
-14 6 13 15 16 18 19 20 21 22 23 27 30 33 34 38 43 0 
-33 6 13 14 15 16 18 19 20 21 22 23 27 30 34 38 43 0 
-18 6 13 14 15 16 19 20 21 22 23 27 30 33 34 38 43 0 
-35 17 24 25 26 28 31 32 36 37 39 43 0 
-26 17 24 25 28 31 32 35 36 37 39 43 0 
-28 17 24 25 26 31 32 35 36 37 39 -29 43 0 
-36 17 24 25 26 28 31 32 35 37 39 43 0 
-37 17 24 25 26 28 31 32 35 36 39 43 0 
-30 6 13 14 15 16 18 19 20 21 22 23 27 33 34 38 43 0 
-14 6 13 15 16 18 19 20 21 22 23 27 30 33 34 38 44 0 
-34 6 13 14 15 16 18 19 20 21 22 23 27 30 33 38 44 0 
-1 44 0 
-16 6 13 14 15 18 19 20 21 22 23 27 30 33 34 38 44 0 
-38 6 13 14 15 16 18 19 20 21 22 23 27 30 33 34 44 0 
-19 6 13 14 15 16 18 20 21 22 23 27 30 33 34 38 44 0 
-22 6 13 14 15 16 18 19 20 21 23 27 30 33 34 38 44 0 
-33 6 13 14 15 16 18 19 20 21 22 23 27 30 34 38 44 0 
-31 17 24 25 26 28 32 35 36 37 39 45 0 
-23 6 13 14 15 16 18 19 20 21 22 27 30 33 34 38 44 0 
-18 6 13 14 15 16 19 20 21 22 23 27 30 33 34 38 44 0 
-26 17 24 25 28 31 32 35 36 37 39 44 0 
-34 6 13 14 15 16 18 19 20 21 22 23 27 30 33 38 45 0 
-38 6 13 14 15 16 18 19 20 21 22 23 27 30 33 34 45 0 
-23 6 13 14 15 16 18 19 20 21 22 27 30 33 34 38 45 0 
-16 6 13 14 15 18 19 20 21 22 23 27 30 33 34 38 45 0 
-1 45 0 
-20 6 13 14 15 16 18 19 21 22 23 27 30 33 34 38 45 0 
-33 6 13 14 15 16 18 19 20 21 22 23 27 30 34 38 45 0 
-35 17 24 25 26 28 31 32 36 37 39 45 0 
-19 6 13 14 15 16 18 20 21 22 23 27 30 33 34 38 45 0 
-36 17 24 25 26 28 31 32 35 37 39 45 0 
-39 17 24 25 26 28 31 32 35 36 37 45 0 
-36 17 24 25 26 28 31 32 35 37 39 44 0 
